
Gurobi 10.0.1 (mac64[arm]) logging started Thu Jun 22 07:09:20 2023

Set parameter LogFile to value "/Users/brandonalston/Desktop/Code/MDT/log_files/_iris_H:2_M:CUT1-UF-lagrange-one-step_T:300_Seed:138_E:None"
Warning: Q constraint 0 doesn't have a name
Gurobi Optimizer version 10.0.1 build v10.0.1rc0 (mac64[arm])

CPU model: Apple M1
Thread count: 8 physical cores, 8 logical processors, using up to 1 threads

Optimize a model with 2030 rows, 3074 columns and 4644 nonzeros
Model fingerprint: 0x469b200f
Model has 12 quadratic objective terms
Model has 351 quadratic constraints
Variable types: 1478 continuous, 1596 integer (1596 binary)
Coefficient statistics:
  Matrix range     [1e+00, 1e+00]
  QMatrix range    [2e-02, 1e+00]
  QLMatrix range   [1e+00, 1e+00]
  Objective range  [1e+00, 1e+00]
  QObjective range [1e+00, 1e+00]
  Bounds range     [1e+00, 2e+00]
  RHS range        [1e+00, 1e+00]
  QRHS range       [1e+00, 1e+00]
Presolve removed 458 rows and 14 columns
Presolve time: 0.02s
Presolved: 9252 rows, 8394 columns, 29267 nonzeros
Presolved model has 1344 SOS constraint(s)
Presolved model has 12 quadratic objective terms
Variable types: 6133 continuous, 2261 integer (2261 binary)

Root simplex log...

Iteration    Objective       Primal Inf.    Dual Inf.      Time
   76444    7.8583092e+02   3.165075e+01   0.000000e+00      5s
  135874    7.8400000e+02   0.000000e+00   0.000000e+00      9s

Root relaxation: objective 7.840000e+02, 135874 iterations, 9.45 seconds (27.78 work units)

    Nodes    |    Current Node    |     Objective Bounds      |     Work
 Expl Unexpl |  Obj  Depth IntInf | Incumbent    BestBd   Gap | It/Node Time

     0     0  784.00000    0 1564          -  784.00000      -     -    9s
     0     0  784.00000    0 1602          -  784.00000      -     -   12s
     0     0  784.00000    0 1264          -  784.00000      -     -   17s
     0     0  784.00000    0 1365          -  784.00000      -     -   20s
     0     0  784.00000    0 1290          -  784.00000      -     -   25s
     0     0  784.00000    0 1152          -  784.00000      -     -   32s
     0     0  784.00000    0 1239          -  784.00000      -     -   34s
     0     0  784.00000    0 1092          -  784.00000      -     -   36s
     0     0  784.00000    0 1105          -  784.00000      -     -   38s
     0     0  784.00000    0 1170          -  784.00000      -     -   42s
     0     0  784.00000    0 1179          -  784.00000      -     -   44s
     0     0  784.00000    0 1305          -  784.00000      -     -   46s
     0     2  784.00000    0 1150          -  784.00000      -     -   49s
     1     3  784.00000    1 1281          -  784.00000      - 35890   51s
     8    10  784.00000    4 1136          -  784.00000      - 17283   55s
    30    32  784.00000   15 1043          -  784.00000      -  6704   60s
    42    44  784.00000   21 1396          -  784.00000      -  7445   65s
    49    51  784.00000   25 1255          -  784.00000      -  7863   70s
    56    58  784.00000   28 1045          -  784.00000      -  8925   75s
    64    66  784.00000   32 1275          -  784.00000      -  9161   81s
    72    74  784.00000   36 1060          -  784.00000      -  9480   86s
    86    88  784.00000   43 1049          -  784.00000      -  8888   90s
   100   102  784.00000   50 1090          -  784.00000      -  8685   95s
   106   108  784.00000   53  922          -  784.00000      -  9032  101s
   114   116  784.00000   57  983          -  784.00000      -  9320  106s
   124   126  784.00000   62  922          -  784.00000      -  9229  110s
   129   131  784.00000   65 1072          -  784.00000      -  9660  116s
   148   150  784.00000   74 1106          -  784.00000      -  8976  120s
   159   161  784.00000   80 1097          -  784.00000      -  9148  126s
   164   166  784.00000   82  997          -  784.00000      -  9313  130s
   172   174  784.00000   86  941          -  784.00000      -  9567  135s
   190   192  784.00000   95  936          -  784.00000      -  9188  140s
   196   198  784.00000   98 1008          -  784.00000      -  9344  145s
   208   210  784.00000  104  918          -  784.00000      -  9414  150s
   217   219  784.00000  109  901          -  784.00000      -  9448  155s
   223   225  784.00000  112 1157          -  784.00000      -  9653  160s
   232   234  784.00000  116  840          -  784.00000      -  9766  165s
   240   242  784.00000  120  939          -  784.00000      -  9930  170s
   246   248  784.00000  123  867          -  784.00000      -  9989  175s
   256   258  784.00000  128  888          -  784.00000      - 10034  180s
   261   263  784.00000  131 1220          -  784.00000      - 10158  186s
   266   268  784.00000  133  898          -  784.00000      - 10288  190s
   271   273  784.00000  136  700          -  784.00000      - 10400  195s
   275   277  784.00000  138  605          -  784.00000      - 10559  200s
   282   284  784.00000  141  776          -  784.00000      - 10800  207s
   288   290  784.00000  144  452          -  784.00000      - 10757  210s
   298   300  784.00000  149  450          -  784.00000      - 10729  215s
   308   310  784.00000  155  511          -  784.00000      - 10720  220s
   317   319  784.00000  159  440          -  784.00000      - 10732  225s
   323   325  784.00000  162  439          -  784.00000      - 10823  230s
   328   330  784.00000  165  526          -  784.00000      - 10978  235s
   334   336  784.00000  168  583          -  784.00000      - 11125  240s
   339   341  784.00000  170  606          -  784.00000      - 11310  245s
   346   348  784.00000  174  524          -  784.00000      - 11365  250s
   350   352  784.00000  176  555          -  784.00000      - 11544  255s
   359   361  784.00000  180  572          -  784.00000      - 11612  260s
   363   365  784.00000  182  546          -  784.00000      - 11768  265s
   368   370  784.00000  185  606          -  784.00000      - 11901  270s
   372   374  784.00000  187  461          -  784.00000      - 12063  275s
   397   399  782.77755  210  388          -  784.00000      - 11423  280s
   682   684  778.42761  392   10          -  784.00000      -  6789  285s
H  781   739                       2.0000000  784.00000      -  5979  289s

Explored 782 nodes (5504550 simplex iterations) in 300.00 seconds (671.64 work units)
Thread count was 1 (of 8 available processors)

Solution count 1: 2 

Time limit reached
Best objective 2.000000000000e+00, best bound 7.840000000000e+02, gap 39100.0000%

User-callback calls 15356, time in user-callback 0.34 sec
